nohup: ignoring input
2024-08-01 15:29:36.461103: I external/local_xla/xla/tsl/cuda/cudart_stub.cc:32] Could not find cuda drivers on your machine, GPU will not be used.
2024-08-01 15:29:36.463488: I external/local_xla/xla/tsl/cuda/cudart_stub.cc:32] Could not find cuda drivers on your machine, GPU will not be used.
2024-08-01 15:29:36.470162: E external/local_xla/xla/stream_executor/cuda/cuda_fft.cc:485] Unable to register cuFFT factory: Attempting to register factory for plugin cuFFT when one has already been registered
2024-08-01 15:29:36.480656: E external/local_xla/xla/stream_executor/cuda/cuda_dnn.cc:8454] Unable to register cuDNN factory: Attempting to register factory for plugin cuDNN when one has already been registered
2024-08-01 15:29:36.483793: E external/local_xla/xla/stream_executor/cuda/cuda_blas.cc:1452] Unable to register cuBLAS factory: Attempting to register factory for plugin cuBLAS when one has already been registered
2024-08-01 15:29:36.493417: I tensorflow/core/platform/cpu_feature_guard.cc:210] This TensorFlow binary is optimized to use available CPU instructions in performance-critical operations.
To enable the following instructions: AVX2 FMA, in other operations, rebuild TensorFlow with the appropriate compiler flags.
2024-08-01 15:29:39.796266: W tensorflow/compiler/tf2tensorrt/utils/py_utils.cc:38] TF-TRT Warning: Could not find TensorRT
332
no warm start
Set parameter TokenServer to value "vm-gurobi-license.doc.ic.ac.uk"
Gurobi Optimizer version 11.0.2 build v11.0.2rc0 (linux64 - "Ubuntu 22.04.4 LTS")

CPU model: AMD Ryzen 7 5700X 8-Core Processor, instruction set [SSE2|AVX|AVX2]
Thread count: 8 physical cores, 16 logical processors, using up to 16 threads

Optimize a model with 1890 rows, 26674 columns and 48522 nonzeros
Model fingerprint: 0xddcea1c8
Model has 180 quadratic constraints
Variable types: 26296 continuous, 378 integer (378 binary)
Coefficient statistics:
  Matrix range     [4e-03, 3e+04]
  QMatrix range    [1e+00, 1e+00]
  QLMatrix range   [1e+00, 2e+00]
  Objective range  [1e+00, 1e+00]
  Bounds range     [1e+00, 1e+00]
  RHS range        [8e+02, 3e+04]
  QRHS range       [1e+00, 1e+00]
Presolve removed 468 rows and 15104 columns
Presolve time: 0.04s
Presolved: 13122 rows, 14540 columns, 77080 nonzeros
Presolved model has 90 quadratic constraint(s)
Presolved model has 2880 bilinear constraint(s)

Solving non-convex MIQCP

Variable types: 14162 continuous, 378 integer (378 binary)
Found heuristic solution: objective 90.0000000

Root relaxation: objective 8.100000e+01, 3893 iterations, 0.03 seconds (0.05 work units)

    Nodes    |    Current Node    |     Objective Bounds      |     Work
 Expl Unexpl |  Obj  Depth IntInf | Incumbent    BestBd   Gap | It/Node Time

     0     0   81.00000    0  112   90.00000   81.00000  10.0%     -    0s
     0     0   81.00000    0  114   90.00000   81.00000  10.0%     -    0s
H    0     0                      82.6248725   81.00000  1.97%     -    0s
     0     0   81.00000    0  114   82.62487   81.00000  1.97%     -    0s
H    0     0                      82.5991240   81.00000  1.94%     -    0s
     0     0   81.00000    0  115   82.59912   81.00000  1.94%     -    0s
     0     0   81.00000    0  115   82.59912   81.00000  1.94%     -    0s
     0     0   81.00000    0  115   82.59912   81.00000  1.94%     -    0s
     0     0   81.00000    0  115   82.59912   81.00000  1.94%     -    0s
     0     0   81.00000    0  115   82.59912   81.00000  1.94%     -    0s
H    0     0                      81.1266034   81.00000  0.16%     -    0s
     0     2   81.00000    0  112   81.12660   81.00000  0.16%     -    1s
H  310   463                      81.0007845   81.00000  0.00%  50.5    3s
H  355   463                      81.0004963   81.00000  0.00%  47.8    3s
H  401   463                      81.0000000   81.00000  0.00%  43.6    3s

Explored 462 nodes (28416 simplex iterations) in 3.04 seconds (4.46 work units)
Thread count was 16 (of 16 available processors)

Solution count 7: 81 81.0005 81.0008 ... 90

Optimal solution found (tolerance 1.00e-04)
Best objective 8.100000000000e+01, best bound 8.100000000000e+01, gap 0.0000%
no warm start
Gurobi Optimizer version 11.0.2 build v11.0.2rc0 (linux64 - "Ubuntu 22.04.4 LTS")

CPU model: AMD Ryzen 7 5700X 8-Core Processor, instruction set [SSE2|AVX|AVX2]
Thread count: 8 physical cores, 16 logical processors, using up to 16 threads

Optimize a model with 810 rows, 802 columns and 2682 nonzeros
Model fingerprint: 0xde42e98e
Model has 180 quadratic constraints
Variable types: 640 continuous, 162 integer (162 binary)
Coefficient statistics:
  Matrix range     [4e-03, 1e+02]
  QMatrix range    [1e+00, 1e+00]
  QLMatrix range   [1e+00, 2e+00]
  Objective range  [1e+00, 1e+00]
  Bounds range     [1e+00, 1e+00]
  RHS range        [2e+01, 1e+02]
  QRHS range       [1e+00, 1e+00]
Presolve removed 252 rows and 0 columns
Presolve time: 0.00s
Presolved: 3618 rows, 1612 columns, 10800 nonzeros
Presolved model has 90 quadratic constraint(s)
Presolved model has 720 bilinear constraint(s)

Solving non-convex MIQCP

Variable types: 1450 continuous, 162 integer (162 binary)
Found heuristic solution: objective 90.0000000

Root relaxation: objective 8.100000e+01, 918 iterations, 0.01 seconds (0.01 work units)

    Nodes    |    Current Node    |     Objective Bounds      |     Work
 Expl Unexpl |  Obj  Depth IntInf | Incumbent    BestBd   Gap | It/Node Time

     0     0   81.00000    0   60   90.00000   81.00000  10.0%     -    0s
     0     0   81.00000    0   61   90.00000   81.00000  10.0%     -    0s
     0     0   81.00000    0   63   90.00000   81.00000  10.0%     -    0s
     0     0   81.00000    0   63   90.00000   81.00000  10.0%     -    0s
     0     0   81.00000    0   63   90.00000   81.00000  10.0%     -    0s
     0     0   81.00000    0   63   90.00000   81.00000  10.0%     -    0s
     0     0   81.00000    0   63   90.00000   81.00000  10.0%     -    0s
     0     0   81.00000    0   63   90.00000   81.00000  10.0%     -    0s
     0     2   81.00000    0   63   90.00000   81.00000  10.0%     -    0s
H    3     8                      89.0000610   81.00000  8.99%   8.3    0s
H   32    40                      89.0000000   81.00000  8.99%  46.3    0s
H   34    40                      88.0799600   81.00000  8.04%  48.2    0s
H   64    80                      88.0799600   81.00000  8.04%  44.4    0s
H   79    94                      87.0341635   81.00000  6.93%  44.6    0s
H   84    94                      86.7644680   81.00000  6.64%  48.0    0s
H  147   210                      86.7644679   81.00000  6.64%  46.8    0s
H  169   210                      86.4920147   81.00000  6.35%  46.9    0s
H  186   210                      85.3460307   81.00000  5.09%  46.7    0s
H  313   376                      84.3377004   81.00000  3.96%  45.6    0s
H  399   610                      84.3377003   81.00000  3.96%  45.2    0s
H  401   610                      83.2523684   81.00000  2.71%  45.0    0s
H  437   610                      81.7704251   81.00000  0.94%  43.0    0s
H  624   861                      81.7704251   81.00000  0.94%  41.6    0s
H  677   861                      81.0039817   81.00000  0.00%  40.5    0s

Cutting planes:
  Gomory: 1
  RLT: 2

Explored 1070 nodes (36461 simplex iterations) in 0.63 seconds (0.88 work units)
Thread count was 16 (of 16 available processors)

Solution count 10: 81.004 81.7704 83.2524 ... 89

Optimal solution found (tolerance 1.00e-04)
Best objective 8.100398170281e+01, best bound 8.100000000000e+01, gap 0.0049%
no warm start
Gurobi Optimizer version 11.0.2 build v11.0.2rc0 (linux64 - "Ubuntu 22.04.4 LTS")

CPU model: AMD Ryzen 7 5700X 8-Core Processor, instruction set [SSE2|AVX|AVX2]
Thread count: 8 physical cores, 16 logical processors, using up to 16 threads

Optimize a model with 2520 rows, 27082 columns and 64280 nonzeros
Model fingerprint: 0x37bdcd15
Model has 240 quadratic constraints
Variable types: 26578 continuous, 504 integer (504 binary)
Coefficient statistics:
  Matrix range     [4e-03, 3e+04]
  QMatrix range    [1e+00, 1e+00]
  QLMatrix range   [1e+00, 2e+00]
  Objective range  [1e+00, 1e+00]
  Bounds range     [1e+00, 1e+00]
  RHS range        [8e+02, 3e+04]
  QRHS range       [1e+00, 1e+00]
Presolve removed 624 rows and 13984 columns
Presolve time: 0.05s
Presolved: 17496 rows, 17058 columns, 104064 nonzeros
Presolved model has 120 quadratic constraint(s)
Presolved model has 3840 bilinear constraint(s)

Solving non-convex MIQCP

Variable types: 16554 continuous, 504 integer (504 binary)
Found heuristic solution: objective 120.0000000
Deterministic concurrent LP optimizer: primal and dual simplex
Showing primal log only...

Concurrent spin time: 0.00s

Solved with dual simplex

Use crossover to convert LP symmetric solution to basic solution...

Root relaxation: objective 1.080000e+02, 2791 iterations, 0.05 seconds (0.08 work units)

    Nodes    |    Current Node    |     Objective Bounds      |     Work
 Expl Unexpl |  Obj  Depth IntInf | Incumbent    BestBd   Gap | It/Node Time

     0     0  108.00000    0   45  120.00000  108.00000  10.0%     -    0s
     0     0  108.00000    0   52  120.00000  108.00000  10.0%     -    0s
H    0     0                     112.0695153  108.00000  3.63%     -    0s
     0     0  108.00000    0   52  112.06952  108.00000  3.63%     -    0s
     0     0  108.00000    0   52  112.06952  108.00000  3.63%     -    0s
     0     0  108.00000    0   52  112.06952  108.00000  3.63%     -    0s
     0     0  108.00000    0   52  112.06952  108.00000  3.63%     -    0s
     0     0  108.00000    0   52  112.06952  108.00000  3.63%     -    0s
     0     0  108.00000    0   52  112.06952  108.00000  3.63%     -    0s
     0     2  108.00000    0   52  112.06952  108.00000  3.63%     -    1s
H   32    40                     111.9848863  108.00000  3.56%   215    2s
H  118   120                     111.9848857  108.00000  3.56%   231    3s
H  121   128                     111.9847336  108.00000  3.56%   227    3s
H  123   128                     111.1720164  108.00000  2.85%   227    3s
   321   470  111.00000   23   52  111.17202  108.00000  2.85%   188    5s
H  532   693                     109.1623632  108.00000  1.06%   145    6s
H 1355  1689                     109.1353770  108.00000  1.04%   109    9s
H 1401  1164                     109.0000000  108.00000  0.92%   109    9s
H 1413  1164                     108.1623632  108.00000  0.15%   108    9s
  1995  1515  108.00000   83   12  108.16236  108.00000  0.15%  87.8   10s
H 2649  1509                     108.0000010  108.00000  0.00%  75.8   12s

Explored 2650 nodes (209243 simplex iterations) in 12.39 seconds (16.37 work units)
Thread count was 16 (of 16 available processors)

Solution count 10: 108 108.162 109 ... 112.07

Optimal solution found (tolerance 1.00e-04)
Best objective 1.080000010329e+02, best bound 1.080000000000e+02, gap 0.0000%
no warm start
Gurobi Optimizer version 11.0.2 build v11.0.2rc0 (linux64 - "Ubuntu 22.04.4 LTS")

CPU model: AMD Ryzen 7 5700X 8-Core Processor, instruction set [SSE2|AVX|AVX2]
Thread count: 8 physical cores, 16 logical processors, using up to 16 threads

Optimize a model with 1080 rows, 994 columns and 3576 nonzeros
Model fingerprint: 0x9f61bdc9
Model has 240 quadratic constraints
Variable types: 778 continuous, 216 integer (216 binary)
Coefficient statistics:
  Matrix range     [4e-03, 1e+02]
  QMatrix range    [1e+00, 1e+00]
  QLMatrix range   [1e+00, 2e+00]
  Objective range  [1e+00, 1e+00]
  Bounds range     [1e+00, 1e+00]
  RHS range        [2e+01, 1e+02]
  QRHS range       [1e+00, 1e+00]
Presolve removed 336 rows and 0 columns
Presolve time: 0.01s
Presolved: 4824 rows, 2074 columns, 14400 nonzeros
Presolved model has 120 quadratic constraint(s)
Presolved model has 960 bilinear constraint(s)

Solving non-convex MIQCP

Variable types: 1858 continuous, 216 integer (216 binary)
Found heuristic solution: objective 120.0000000

Root relaxation: objective 1.080000e+02, 1202 iterations, 0.01 seconds (0.01 work units)

    Nodes    |    Current Node    |     Objective Bounds      |     Work
 Expl Unexpl |  Obj  Depth IntInf | Incumbent    BestBd   Gap | It/Node Time

     0     0  108.00000    0  268  120.00000  108.00000  10.0%     -    0s
H    0     0                     119.0000000  108.00000  9.24%     -    0s
     0     0  108.00000    0  268  119.00000  108.00000  9.24%     -    0s
H    0     0                     115.0799344  108.00000  6.15%     -    0s
     0     0  108.00000    0  268  115.07993  108.00000  6.15%     -    0s
     0     0  108.00000    0  269  115.07993  108.00000  6.15%     -    0s
     0     0  108.00000    0  269  115.07993  108.00000  6.15%     -    0s
H    0     0                     115.0449140  108.00000  6.12%     -    0s
     0     0  108.00000    0  269  115.04491  108.00000  6.12%     -    0s
     0     0  108.00000    0  269  115.04491  108.00000  6.12%     -    0s
     0     0  108.00000    0  269  115.04491  108.00000  6.12%     -    0s
     0     2  108.00000    0  269  115.04491  108.00000  6.12%     -    0s
H   31    40                     114.4101898  108.00000  5.60%  15.9    0s
H   34    40                     113.3896082  108.00000  4.75%  15.3    0s
H   83    89                     113.3735636  108.00000  4.74%  11.5    0s
H   86    89                     113.1923718  108.00000  4.59%  11.8    0s
H  210   225                     112.8265032  108.00000  4.28%  11.6    0s
H  419   672                     112.8265014  108.00000  4.28%  11.4    0s
H  501   672                     112.8265007  108.00000  4.28%  10.7    0s
H  676  1032                     112.0002302  108.00000  3.57%  11.5    0s
H  752  1032                     111.4740736  108.00000  3.12%  12.4    0s
H  812  1032                     111.1903845  108.00000  2.87%  14.0    0s
H  870  1032                     110.6839557  108.00000  2.42%  13.7    0s
H 1041  1308                     110.6839557  108.00000  2.42%  13.3    0s
H 1163  1292                     109.7932676  108.00000  1.63%  17.0    0s
H 1204  1292                     109.7276464  108.00000  1.57%  17.4    0s
H 1476  1561                     109.2781312  108.00000  1.17%  22.8    1s
H 1695  1902                     109.2781308  108.00000  1.17%  25.7    1s
H 1772  1902                     109.1767079  108.00000  1.08%  27.0    1s
H 1818  1252                     108.0309162  108.00000  0.03%  27.5    1s
H 1946  1496                     108.0005105  108.00000  0.00%  28.6    1s
H 2178  1496                     108.0000001  108.00000  0.00%  28.0    1s

Cutting planes:
  RLT: 4

Explored 2371 nodes (69851 simplex iterations) in 1.32 seconds (2.73 work units)
Thread count was 16 (of 16 available processors)

Solution count 10: 108 108.001 108.031 ... 111.19

Optimal solution found (tolerance 1.00e-04)
Best objective 1.080000000346e+02, best bound 1.080000000000e+02, gap 0.0000%
no warm start
Gurobi Optimizer version 11.0.2 build v11.0.2rc0 (linux64 - "Ubuntu 22.04.4 LTS")

CPU model: AMD Ryzen 7 5700X 8-Core Processor, instruction set [SSE2|AVX|AVX2]
Thread count: 8 physical cores, 16 logical processors, using up to 16 threads

Optimize a model with 3150 rows, 27490 columns and 79046 nonzeros
Model fingerprint: 0x49c6913f
Model has 300 quadratic constraints
Variable types: 26860 continuous, 630 integer (630 binary)
Coefficient statistics:
  Matrix range     [4e-03, 3e+04]
  QMatrix range    [1e+00, 1e+00]
  QLMatrix range   [1e+00, 2e+00]
  Objective range  [1e+00, 1e+00]
  Bounds range     [1e+00, 1e+00]
  RHS range        [8e+02, 3e+04]
  QRHS range       [1e+00, 1e+00]
Presolve removed 780 rows and 13536 columns
Presolve time: 0.06s
Presolved: 21870 rows, 18904 columns, 129928 nonzeros
Presolved model has 150 quadratic constraint(s)
Presolved model has 4800 bilinear constraint(s)

Solving non-convex MIQCP

Variable types: 18274 continuous, 630 integer (630 binary)
Found heuristic solution: objective 150.0000000
Deterministic concurrent LP optimizer: primal and dual simplex
Showing primal log only...

Concurrent spin time: 0.00s

Solved with primal simplex

Use crossover to convert LP symmetric solution to basic solution...

Root relaxation: objective 1.350000e+02, 1016 iterations, 0.06 seconds (0.10 work units)

    Nodes    |    Current Node    |     Objective Bounds      |     Work
 Expl Unexpl |  Obj  Depth IntInf | Incumbent    BestBd   Gap | It/Node Time

     0     0  135.00000    0   15  150.00000  135.00000  10.0%     -    0s
H    0     0                     149.0000003  135.00000  9.40%     -    8s
H    0     0                     145.0000000  135.00000  6.90%     -    8s
H    0     0                     144.0000000  135.00000  6.25%     -    8s
H    0     0                     135.6023113  135.00000  0.44%     -    8s
     0     0  135.00000    0 3478  135.60231  135.00000  0.44%     -    8s
     0     0  135.00000    0 3330  135.60231  135.00000  0.44%     -    9s
     0     0  135.00000    0 3330  135.60231  135.00000  0.44%     -    9s
     0     0  135.00000    0 3330  135.60231  135.00000  0.44%     -    9s
H    0     0                     135.0000000  135.00000  0.00%     -    9s
     0     0  135.00000    0 3330  135.00000  135.00000  0.00%     -    9s

Cutting planes:
  Gomory: 39
  MIR: 2
  Flow cover: 17
  RLT: 1

Explored 1 nodes (42003 simplex iterations) in 9.41 seconds (14.66 work units)
Thread count was 16 (of 16 available processors)

Solution count 6: 135 135.602 144 ... 150

Optimal solution found (tolerance 1.00e-04)
Best objective 1.350000000000e+02, best bound 1.350000000000e+02, gap 0.0000%
no warm start
Gurobi Optimizer version 11.0.2 build v11.0.2rc0 (linux64 - "Ubuntu 22.04.4 LTS")

CPU model: AMD Ryzen 7 5700X 8-Core Processor, instruction set [SSE2|AVX|AVX2]
Thread count: 8 physical cores, 16 logical processors, using up to 16 threads

Optimize a model with 1350 rows, 1186 columns and 4470 nonzeros
Model fingerprint: 0x76964c13
Model has 300 quadratic constraints
Variable types: 916 continuous, 270 integer (270 binary)
Coefficient statistics:
  Matrix range     [4e-03, 1e+02]
  QMatrix range    [1e+00, 1e+00]
  QLMatrix range   [1e+00, 2e+00]
  Objective range  [1e+00, 1e+00]
  Bounds range     [1e+00, 1e+00]
  RHS range        [2e+01, 1e+02]
  QRHS range       [1e+00, 1e+00]
Presolve removed 420 rows and 0 columns
Presolve time: 0.01s
Presolved: 6030 rows, 2536 columns, 18000 nonzeros
Presolved model has 150 quadratic constraint(s)
Presolved model has 1200 bilinear constraint(s)

Solving non-convex MIQCP

Variable types: 2266 continuous, 270 integer (270 binary)
Found heuristic solution: objective 150.0000000

Root relaxation: objective 1.350000e+02, 1534 iterations, 0.01 seconds (0.02 work units)

    Nodes    |    Current Node    |     Objective Bounds      |     Work
 Expl Unexpl |  Obj  Depth IntInf | Incumbent    BestBd   Gap | It/Node Time

     0     0  135.00000    0  148  150.00000  135.00000  10.0%     -    0s
     0     0  135.00000    0  149  150.00000  135.00000  10.0%     -    0s
H    0     0                     149.7550897  135.00000  9.85%     -    0s
     0     0  135.00000    0  150  149.75509  135.00000  9.85%     -    0s
     0     0  135.00000    0  152  149.75509  135.00000  9.85%     -    0s
     0     0  135.00000    0  152  149.75509  135.00000  9.85%     -    0s
     0     0  135.00000    0  151  149.75509  135.00000  9.85%     -    0s
H    0     0                     149.7550895  135.00000  9.85%     -    0s
     0     0  135.00000    0  151  149.75509  135.00000  9.85%     -    0s
     0     0  135.00000    0  151  149.75509  135.00000  9.85%     -    0s
     0     0  135.00000    0  151  149.75509  135.00000  9.85%     -    0s
     0     0  135.00000    0  151  149.75509  135.00000  9.85%     -    0s
     0     2  135.00000    0  151  149.75509  135.00000  9.85%     -    0s
H   31    40                     149.7550893  135.00000  9.85%  25.5    0s
H   32    40                     148.0000065  135.00000  8.78%  24.8    0s
H   36    40                     148.0000000  135.00000  8.78%  25.9    0s
H   80    90                     146.8490245  135.00000  8.07%  23.0    0s
H   88    90                     146.4071470  135.00000  7.79%  22.5    0s
H  117   224                     146.4071440  135.00000  7.79%  22.6    0s
H  154   224                     146.4071419  135.00000  7.79%  21.6    0s
H  208   224                     146.4071411  135.00000  7.79%  19.2    0s
H  223   379                     142.5895614  135.00000  5.32%  19.1    0s
H  258   379                     141.4499086  135.00000  4.56%  19.5    0s
H  399   661                     141.4499083  135.00000  4.56%  18.6    0s
H  440   661                     141.4499069  135.00000  4.56%  18.7    0s
H  790  1043                     141.2878881  135.00000  4.45%  21.5    1s
H  823  1043                     141.0626869  135.00000  4.30%  22.9    1s
H  879  1043                     140.6266400  135.00000  4.00%  24.1    1s
H 1042  1421                     139.7327876  135.00000  3.39%  28.3    1s
H 1163  1421                     137.0171346  135.00000  1.47%  32.3    1s
H 1760  2019                     137.0109285  135.00000  1.47%  36.2    1s
H 2115  2568                     137.0109284  135.00000  1.47%  38.1    1s
H 2153  2544                     136.3810456  135.00000  1.01%  38.6    1s
H 2255  1822                     135.5561776  135.00000  0.41%  37.6    1s
H 2583  1559                     135.5561776  135.00000  0.41%  36.8    2s
H 2583  1481                     135.5398069  135.00000  0.40%  36.8    2s
H 2584  1408                     135.0639086  135.00000  0.05%  36.7    2s
H 2588  1339                     135.0000001  135.00000  0.00%  36.7    3s

Cutting planes:
  RLT: 2

Explored 2588 nodes (100440 simplex iterations) in 3.54 seconds (5.39 work units)
Thread count was 16 (of 16 available processors)

Solution count 10: 135 135.064 135.54 ... 139.733

Optimal solution found (tolerance 1.00e-04)
Best objective 1.350000000505e+02, best bound 1.350000000000e+02, gap 0.0000%
no warm start
Gurobi Optimizer version 11.0.2 build v11.0.2rc0 (linux64 - "Ubuntu 22.04.4 LTS")

CPU model: AMD Ryzen 7 5700X 8-Core Processor, instruction set [SSE2|AVX|AVX2]
Thread count: 8 physical cores, 16 logical processors, using up to 16 threads

Optimize a model with 3780 rows, 27898 columns and 93940 nonzeros
Model fingerprint: 0xb46a2d38
Model has 360 quadratic constraints
Variable types: 27142 continuous, 756 integer (756 binary)
Coefficient statistics:
  Matrix range     [4e-03, 3e+04]
  QMatrix range    [1e+00, 1e+00]
  QLMatrix range   [1e+00, 2e+00]
  Objective range  [1e+00, 1e+00]
  Bounds range     [1e+00, 1e+00]
  RHS range        [8e+02, 3e+04]
  QRHS range       [1e+00, 1e+00]
Presolve removed 936 rows and 13216 columns
Presolve time: 0.07s
Presolved: 26244 rows, 20622 columns, 155472 nonzeros
Presolved model has 180 quadratic constraint(s)
Presolved model has 5760 bilinear constraint(s)

Solving non-convex MIQCP

Variable types: 19866 continuous, 756 integer (756 binary)
Found heuristic solution: objective 180.0000000
Deterministic concurrent LP optimizer: primal and dual simplex
Showing primal log only...

Concurrent spin time: 0.00s

Solved with primal simplex

Use crossover to convert LP symmetric solution to basic solution...

Root relaxation: objective 1.620000e+02, 1851 iterations, 0.07 seconds (0.12 work units)

    Nodes    |    Current Node    |     Objective Bounds      |     Work
 Expl Unexpl |  Obj  Depth IntInf | Incumbent    BestBd   Gap | It/Node Time

     0     0  162.00000    0   18  180.00000  162.00000  10.0%     -    0s
H    0     0                     179.0000007  162.00000  9.50%     -   12s
H    0     0                     179.0000000  162.00000  9.50%     -   12s
H    0     0                     174.0000000  162.00000  6.90%     -   12s
H    0     0                     173.0000000  162.00000  6.36%     -   12s
H    0     0                     172.0000001  162.00000  5.81%     -   12s
H    0     0                     171.9791787  162.00000  5.80%     -   12s
H    0     0                     171.9791785  162.00000  5.80%     -   12s
H    0     0                     169.6351641  162.00000  4.50%     -   12s
H    0     0                     168.6351641  162.00000  3.93%     -   12s
H    0     0                     167.6351641  162.00000  3.36%     -   12s
     0     0  162.00000    0 3890  167.63516  162.00000  3.36%     -   12s
H    0     0                     166.7053125  162.00000  2.82%     -   13s
     0     0  162.00000    0 3798  166.70531  162.00000  2.82%     -   13s
     0     0  162.00000    0 3798  166.70531  162.00000  2.82%     -   14s
     0     0  162.00000    0 3798  166.70531  162.00000  2.82%     -   14s
H    0     0                     165.7468335  162.00000  2.26%     -   14s
     0     0  162.00000    0 3798  165.74683  162.00000  2.26%     -   14s
     0     0  162.00000    0 3798  165.74683  162.00000  2.26%     -   14s
     0     0  162.00000    0 3798  165.74683  162.00000  2.26%     -   14s
     0     0  162.00000    0 3798  165.74683  162.00000  2.26%     -   14s
     0     2  162.00000    0 3798  165.74683  162.00000  2.26%     -   52s
H   31    40                     165.7468328  162.00000  2.26%   255   53s
H   33    40                     165.7468327  162.00000  2.26%   240   53s
H   34    40                     165.7468326  162.00000  2.26%   236   53s
H   35    40                     163.0000001  162.00000  0.61%   229   53s
   165   269  162.00000   16 3827  163.00000  162.00000  0.61%   166   67s
H  226   269                     162.0151166  162.00000  0.01%   156   67s
H  249   269                     162.0000019  162.00000  0.00%   232   67s

Cutting planes:
  Gomory: 52
  MIR: 1
  Flow cover: 19
  RLT: 1

Explored 268 nodes (142505 simplex iterations) in 67.90 seconds (152.92 work units)
Thread count was 16 (of 16 available processors)

Solution count 10: 162 162.015 163 ... 169.635

Optimal solution found (tolerance 1.00e-04)
Best objective 1.620000018505e+02, best bound 1.620000000000e+02, gap 0.0000%
no warm start
Gurobi Optimizer version 11.0.2 build v11.0.2rc0 (linux64 - "Ubuntu 22.04.4 LTS")

CPU model: AMD Ryzen 7 5700X 8-Core Processor, instruction set [SSE2|AVX|AVX2]
Thread count: 8 physical cores, 16 logical processors, using up to 16 threads

Optimize a model with 1620 rows, 1378 columns and 5364 nonzeros
Model fingerprint: 0x92f0438e
Model has 360 quadratic constraints
Variable types: 1054 continuous, 324 integer (324 binary)
Coefficient statistics:
  Matrix range     [4e-03, 1e+02]
  QMatrix range    [1e+00, 1e+00]
  QLMatrix range   [1e+00, 2e+00]
  Objective range  [1e+00, 1e+00]
  Bounds range     [1e+00, 1e+00]
  RHS range        [2e+01, 1e+02]
  QRHS range       [1e+00, 1e+00]
Presolve removed 504 rows and 0 columns
Presolve time: 0.01s
Presolved: 7236 rows, 2998 columns, 21600 nonzeros
Presolved model has 180 quadratic constraint(s)
Presolved model has 1440 bilinear constraint(s)

Solving non-convex MIQCP

Variable types: 2674 continuous, 324 integer (324 binary)
Found heuristic solution: objective 180.0000000

Root relaxation: objective 1.620000e+02, 1817 iterations, 0.01 seconds (0.02 work units)

    Nodes    |    Current Node    |     Objective Bounds      |     Work
 Expl Unexpl |  Obj  Depth IntInf | Incumbent    BestBd   Gap | It/Node Time

     0     0  162.00000    0  113  180.00000  162.00000  10.0%     -    0s
     0     0  162.00000    0  142  180.00000  162.00000  10.0%     -    0s
H    0     0                     178.9809449  162.00000  9.49%     -    0s
     0     0  162.00000    0  126  178.98094  162.00000  9.49%     -    0s
H    0     0                     178.7365823  162.00000  9.36%     -    0s
     0     0  162.00000    0  114  178.73658  162.00000  9.36%     -    0s
H    0     0                     178.3289083  162.00000  9.16%     -    0s
     0     0  162.00000    0  112  178.32891  162.00000  9.16%     -    0s
     0     0  162.00000    0  112  178.32891  162.00000  9.16%     -    0s
     0     0  162.00000    0  118  178.32891  162.00000  9.16%     -    0s
     0     0  162.00000    0  118  178.32891  162.00000  9.16%     -    0s
     0     2  162.00000    0  118  178.32891  162.00000  9.16%     -    0s
H   31    40                     176.1795846  162.00000  8.05%  65.6    0s
H   33    40                     173.0919821  162.00000  6.41%  64.0    0s
H   85   116                     171.5824019  162.00000  5.58%  56.5    0s
H  109   116                     171.3397762  162.00000  5.45%  48.9    0s
H  115   207                     171.3397717  162.00000  5.45%  47.5    0s
H  244   404                     170.7336627  162.00000  5.12%  47.4    1s
H  268   404                     169.3346729  162.00000  4.33%  47.0    1s
H  417   807                     169.3222691  162.00000  4.32%  46.3    1s
H  487   807                     168.5741387  162.00000  3.90%  44.9    1s
H  774   807                     168.0440615  162.00000  3.60%  47.6    1s
H  806  1386                     164.2053556  162.00000  1.34%  47.4    1s
H 1507  2006                     163.7558302  162.00000  1.07%  49.3    2s
H 1781  1607                     162.0644322  162.00000  0.04%  48.4    2s
H 2039  1903                     162.0644321  162.00000  0.04%  50.3    2s
H 2123  1900                     162.0000001  162.00000  0.00%  49.8    2s

Cutting planes:
  MIR: 3
  Flow cover: 8
  RLT: 1

Explored 2557 nodes (133816 simplex iterations) in 2.64 seconds (5.36 work units)
Thread count was 16 (of 16 available processors)

Solution count 10: 162 162.064 163.756 ... 171.34

Optimal solution found (tolerance 1.00e-04)
Best objective 1.620000000772e+02, best bound 1.620000000000e+02, gap 0.0000%
